(set-info :source |printed by MathSAT|)
(declare-fun .x.14 () Int)
(declare-fun .x.15 () Int)
(declare-fun main@%.0.i_0_0 () Int)
(declare-fun .x.16 () Int)
(declare-fun main@%_2_0_0 () Int)
(declare-fun main@%_2_1 () Int)
(declare-fun main@%assume.flag.0_0_0 () Bool)
(declare-fun .x.17 () Bool)
(declare-fun main@%_5_0_0 () Int)
(declare-fun main@%_5_1 () Int)
(declare-fun main@%shadow.mem.2_0_0 () (Array Int Int))
(declare-fun .x.18 () (Array Int Int))
(declare-fun main@%_4_0_0 () Bool)
(declare-fun main@%_4_1 () Bool)
(declare-fun main@%.1.i1_0_0 () Int)
(declare-fun .x.19 () Int)
(declare-fun main@%shadow.mem.1_0_0 () (Array Int Int))
(declare-fun .x.20 () (Array Int Int))
(declare-fun main@%_3_0_0 () Bool)
(declare-fun main@%_3_1 () Bool)
(declare-fun main@%.01.i2_0_0 () Int)
(declare-fun main@%.01.i2_2 () Int)
(declare-fun main@%shadow.mem.0_0_0 () (Array Int Int))
(declare-fun main@%shadow.mem.0_2 () (Array Int Int))
(declare-fun @nd_0_0 () Int)
(declare-fun .x.21 () Int)
(define-fun .def_8 () Int (! .x.14 :next |.x.15|))
(define-fun .def_10 () Int (! main@%.0.i_0_0 :next |.x.16|))
(define-fun .def_12 () Int (! main@%_2_0_0 :next |main@%_2_1|))
(define-fun .def_14 () Bool (! main@%assume.flag.0_0_0 :next |.x.17|))
(define-fun .def_16 () Int (! main@%_5_0_0 :next |main@%_5_1|))
(define-fun .def_18 () (Array Int Int) (! main@%shadow.mem.2_0_0 :next |.x.18|))
(define-fun .def_20 () Bool (! main@%_4_0_0 :next |main@%_4_1|))
(define-fun .def_22 () Int (! main@%.1.i1_0_0 :next |.x.19|))
(define-fun .def_24 () (Array Int Int) (! main@%shadow.mem.1_0_0 :next |.x.20|))
(define-fun .def_26 () Bool (! main@%_3_0_0 :next |main@%_3_1|))
(define-fun .def_28 () Int (! main@%.01.i2_0_0 :next |main@%.01.i2_2|))
(define-fun .def_30 () (Array Int Int) (! main@%shadow.mem.0_0_0 :next |main@%shadow.mem.0_2|))
(define-fun .def_32 () Int (! @nd_0_0 :next |.x.21|))
(define-fun .def_234 () Bool (! (= .def_8 0) :init true))
(define-fun .def_245 () Bool (= .def_32 .x.21))
(define-fun .def_231 () Bool (<= main@%_5_1 0))
(define-fun .def_232 () Bool (not .def_231))
(define-fun .def_227 () Bool (<= main@%_2_1 0))
(define-fun .def_228 () Bool (not .def_227))
(define-fun .def_229 () Bool (= main@%_3_1 .def_228))
(define-fun .def_226 () Bool (= main@%_4_1 main@%_3_1))
(define-fun .def_230 () Bool (and .def_226 .def_229))
(define-fun .def_233 () Bool (and .def_230 .def_232))
(define-fun .def_235 () Bool (and .def_233 .def_234))
(define-fun .def_223 () Bool (= main@%.01.i2_2 0))
(define-fun .def_192 () Bool (= .x.15 1))
(define-fun .def_219 () Bool (and main@%_3_1 .def_192))
(define-fun .def_34 () Bool (= .def_10 .x.16))
(define-fun .def_220 () Bool (and .def_34 .def_219))
(define-fun .def_36 () Bool (= .def_14 .x.17))
(define-fun .def_221 () Bool (and .def_36 .def_220))
(define-fun .def_38 () Bool (= .def_18 .x.18))
(define-fun .def_222 () Bool (and .def_38 .def_221))
(define-fun .def_224 () Bool (and .def_222 .def_223))
(define-fun .def_213 () Bool (not main@%_3_1))
(define-fun .def_212 () Bool (= .x.17 main@%_4_1))
(define-fun .def_214 () Bool (and .def_212 .def_213))
(define-fun .def_102 () Bool (= .x.16 0))
(define-fun .def_215 () Bool (and .def_102 .def_214))
(define-fun .def_81 () Bool (= .x.15 3))
(define-fun .def_216 () Bool (and .def_81 .def_215))
(define-fun .def_44 () Bool (= .def_28 main@%.01.i2_2))
(define-fun .def_217 () Bool (and .def_44 .def_216))
(define-fun .def_46 () Bool (= .def_30 main@%shadow.mem.0_2))
(define-fun .def_218 () Bool (and .def_46 .def_217))
(define-fun .def_225 () Bool (or .def_218 .def_224))
(define-fun .def_236 () Bool (and .def_225 .def_235))
(define-fun .def_203 () Int (* (- 1) main@%.01.i2_2))
(define-fun .def_204 () Int (+ .def_28 .def_203))
(define-fun .def_205 () Bool (= .def_204 (- 1)))
(define-fun .def_151 () Int (+ .def_16 .def_28))
(define-fun .def_170 () (Array Int Int) (store .def_30 .def_151 42))
(define-fun .def_200 () Bool (= main@%shadow.mem.0_2 .def_170))
(define-fun .def_157 () Int (* (- 1) .def_28))
(define-fun .def_158 () Int (+ .def_12 .def_157))
(define-fun .def_159 () Bool (<= .def_158 1))
(define-fun .def_198 () Bool (not .def_159))
(define-fun .def_193 () Bool (and .def_34 .def_192))
(define-fun .def_194 () Bool (and .def_36 .def_193))
(define-fun .def_195 () Bool (and .def_38 .def_194))
(define-fun .def_152 () Bool (<= .def_151 0))
(define-fun .def_153 () Bool (not .def_152))
(define-fun .def_49 () Bool (<= .def_16 0))
(define-fun .def_154 () Bool (or .def_49 .def_153))
(define-fun .def_196 () Bool (and .def_154 .def_195))
(define-fun .def_50 () Bool (not .def_49))
(define-fun .def_197 () Bool (and .def_50 .def_196))
(define-fun .def_199 () Bool (and .def_197 .def_198))
(define-fun .def_201 () Bool (and .def_199 .def_200))
(define-fun .def_206 () Bool (and .def_201 .def_205))
(define-fun .def_161 () Bool (= .def_8 1))
(define-fun .def_207 () Bool (and .def_161 .def_206))
(define-fun .def_52 () Bool (= .def_12 main@%_2_1))
(define-fun .def_208 () Bool (and .def_52 .def_207))
(define-fun .def_54 () Bool (= .def_16 main@%_5_1))
(define-fun .def_209 () Bool (and .def_54 .def_208))
(define-fun .def_56 () Bool (= .def_20 main@%_4_1))
(define-fun .def_210 () Bool (and .def_56 .def_209))
(define-fun .def_58 () Bool (= .def_26 main@%_3_1))
(define-fun .def_211 () Bool (and .def_58 .def_210))
(define-fun .def_237 () Bool (or .def_211 .def_236))
(define-fun .def_42 () Bool (= .def_24 .x.20))
(define-fun .def_40 () Bool (= .def_22 .x.19))
(define-fun .def_101 () Bool (and .def_40 .def_42))
(define-fun .def_238 () Bool (and .def_101 .def_237))
(define-fun .def_189 () Bool (= .x.19 0))
(define-fun .def_187 () Bool (= .x.20 .def_170))
(define-fun .def_174 () Bool (and .def_26 .def_34))
(define-fun .def_175 () Bool (and .def_36 .def_174))
(define-fun .def_176 () Bool (and .def_38 .def_175))
(define-fun .def_177 () Bool (and .def_44 .def_176))
(define-fun .def_178 () Bool (and .def_46 .def_177))
(define-fun .def_179 () Bool (and .def_154 .def_178))
(define-fun .def_180 () Bool (and .def_50 .def_179))
(define-fun .def_181 () Bool (and .def_159 .def_180))
(define-fun .def_182 () Bool (and .def_161 .def_181))
(define-fun .def_183 () Bool (and .def_52 .def_182))
(define-fun .def_184 () Bool (and .def_54 .def_183))
(define-fun .def_185 () Bool (and .def_56 .def_184))
(define-fun .def_186 () Bool (and .def_58 .def_185))
(define-fun .def_188 () Bool (and .def_186 .def_187))
(define-fun .def_190 () Bool (and .def_188 .def_189))
(define-fun .def_139 () Bool (= .x.15 2))
(define-fun .def_191 () Bool (and .def_139 .def_190))
(define-fun .def_239 () Bool (or .def_191 .def_238))
(define-fun .def_171 () Bool (= .x.18 .def_170))
(define-fun .def_167 () Bool (not .def_26))
(define-fun .def_103 () Bool (and .def_101 .def_102))
(define-fun .def_104 () Bool (and .def_81 .def_103))
(define-fun .def_105 () Bool (and .def_44 .def_104))
(define-fun .def_106 () Bool (and .def_46 .def_105))
(define-fun .def_155 () Bool (and .def_106 .def_154))
(define-fun .def_156 () Bool (and .def_50 .def_155))
(define-fun .def_160 () Bool (and .def_156 .def_159))
(define-fun .def_162 () Bool (and .def_160 .def_161))
(define-fun .def_163 () Bool (and .def_52 .def_162))
(define-fun .def_164 () Bool (and .def_54 .def_163))
(define-fun .def_165 () Bool (and .def_56 .def_164))
(define-fun .def_166 () Bool (and .def_58 .def_165))
(define-fun .def_168 () Bool (and .def_166 .def_167))
(define-fun .def_172 () Bool (and .def_168 .def_171))
(define-fun .def_112 () Bool (= .x.17 .def_20))
(define-fun .def_173 () Bool (and .def_112 .def_172))
(define-fun .def_240 () Bool (or .def_173 .def_239))
(define-fun .def_146 () Int (* (- 1) .x.19))
(define-fun .def_147 () Int (+ .def_22 .def_146))
(define-fun .def_148 () Bool (= .def_147 (- 1)))
(define-fun .def_114 () Int (+ .def_16 .def_22))
(define-fun .def_127 () (Array Int Int) (store .def_24 .def_114 43))
(define-fun .def_144 () Bool (= .x.20 .def_127))
(define-fun .def_120 () Int (* (- 1) .def_22))
(define-fun .def_121 () Int (+ .def_12 .def_120))
(define-fun .def_122 () Bool (<= .def_121 1))
(define-fun .def_142 () Bool (not .def_122))
(define-fun .def_130 () Bool (and .def_34 .def_36))
(define-fun .def_131 () Bool (and .def_38 .def_130))
(define-fun .def_132 () Bool (and .def_44 .def_131))
(define-fun .def_133 () Bool (and .def_46 .def_132))
(define-fun .def_134 () Bool (and .def_50 .def_133))
(define-fun .def_135 () Bool (and .def_52 .def_134))
(define-fun .def_136 () Bool (and .def_54 .def_135))
(define-fun .def_137 () Bool (and .def_56 .def_136))
(define-fun .def_138 () Bool (and .def_58 .def_137))
(define-fun .def_140 () Bool (and .def_138 .def_139))
(define-fun .def_115 () Bool (<= .def_114 0))
(define-fun .def_116 () Bool (not .def_115))
(define-fun .def_117 () Bool (or .def_49 .def_116))
(define-fun .def_141 () Bool (and .def_117 .def_140))
(define-fun .def_143 () Bool (and .def_141 .def_142))
(define-fun .def_145 () Bool (and .def_143 .def_144))
(define-fun .def_149 () Bool (and .def_145 .def_148))
(define-fun .def_125 () Bool (= .def_8 2))
(define-fun .def_150 () Bool (and .def_125 .def_149))
(define-fun .def_241 () Bool (or .def_150 .def_240))
(define-fun .def_128 () Bool (= .x.18 .def_127))
(define-fun .def_107 () Bool (and .def_50 .def_106))
(define-fun .def_108 () Bool (and .def_52 .def_107))
(define-fun .def_109 () Bool (and .def_54 .def_108))
(define-fun .def_110 () Bool (and .def_56 .def_109))
(define-fun .def_111 () Bool (and .def_58 .def_110))
(define-fun .def_113 () Bool (and .def_111 .def_112))
(define-fun .def_118 () Bool (and .def_113 .def_117))
(define-fun .def_123 () Bool (and .def_118 .def_122))
(define-fun .def_126 () Bool (and .def_123 .def_125))
(define-fun .def_129 () Bool (and .def_126 .def_128))
(define-fun .def_242 () Bool (or .def_129 .def_241))
(define-fun .def_96 () Int (* (- 1) .x.16))
(define-fun .def_97 () Int (+ .def_10 .def_96))
(define-fun .def_98 () Bool (= .def_97 (- 1)))
(define-fun .def_65 () Bool (<= .def_12 .def_10))
(define-fun .def_66 () Bool (not .def_65))
(define-fun .def_92 () Bool (and .def_14 .def_66))
(define-fun .def_93 () Bool (= .x.17 .def_92))
(define-fun .def_79 () Bool (and .def_38 .def_40))
(define-fun .def_80 () Bool (and .def_42 .def_79))
(define-fun .def_82 () Bool (and .def_80 .def_81))
(define-fun .def_83 () Bool (and .def_44 .def_82))
(define-fun .def_84 () Bool (and .def_46 .def_83))
(define-fun .def_85 () Bool (and .def_50 .def_84))
(define-fun .def_86 () Bool (and .def_52 .def_85))
(define-fun .def_87 () Bool (and .def_54 .def_86))
(define-fun .def_88 () Bool (and .def_56 .def_87))
(define-fun .def_89 () Bool (and .def_58 .def_88))
(define-fun .def_60 () Int (+ .def_10 .def_16))
(define-fun .def_61 () Bool (<= .def_60 0))
(define-fun .def_62 () Bool (not .def_61))
(define-fun .def_63 () Bool (or .def_49 .def_62))
(define-fun .def_90 () Bool (and .def_63 .def_89))
(define-fun .def_72 () Int (select .def_18 .def_60))
(define-fun .def_73 () Bool (= .def_72 43))
(define-fun .def_91 () Bool (and .def_73 .def_90))
(define-fun .def_94 () Bool (and .def_91 .def_93))
(define-fun .def_99 () Bool (and .def_94 .def_98))
(define-fun .def_69 () Bool (= .def_8 3))
(define-fun .def_100 () Bool (and .def_69 .def_99))
(define-fun .def_243 () Bool (or .def_100 .def_242))
(define-fun .def_77 () Bool (= .x.15 4))
(define-fun .def_74 () Bool (not .def_73))
(define-fun .def_35 () Bool (and .def_14 .def_34))
(define-fun .def_37 () Bool (and .def_35 .def_36))
(define-fun .def_39 () Bool (and .def_37 .def_38))
(define-fun .def_41 () Bool (and .def_39 .def_40))
(define-fun .def_43 () Bool (and .def_41 .def_42))
(define-fun .def_45 () Bool (and .def_43 .def_44))
(define-fun .def_47 () Bool (and .def_45 .def_46))
(define-fun .def_51 () Bool (and .def_47 .def_50))
(define-fun .def_53 () Bool (and .def_51 .def_52))
(define-fun .def_55 () Bool (and .def_53 .def_54))
(define-fun .def_57 () Bool (and .def_55 .def_56))
(define-fun .def_59 () Bool (and .def_57 .def_58))
(define-fun .def_64 () Bool (and .def_59 .def_63))
(define-fun .def_67 () Bool (and .def_64 .def_66))
(define-fun .def_70 () Bool (and .def_67 .def_69))
(define-fun .def_75 () Bool (and .def_70 .def_74))
(define-fun .def_78 () Bool (and .def_75 .def_77))
(define-fun .def_244 () Bool (or .def_78 .def_243))
(define-fun .def_246 () Bool (! (and .def_244 .def_245) :trans true))
(define-fun .def_247 () Bool (= .def_8 4))
(define-fun .def_248 () Bool (! (not .def_247) :invar-property 0))
(assert true)
